unsat
(forall ((A (_ BitVec 3))
         (B (_ BitVec 4))
         (C (_ BitVec 16))
         (D (_ BitVec 24))
         (E (_ BitVec 8))
         (F (_ BitVec 1))
         (G (_ BitVec 27))
         (H (_ BitVec 1))
         (I (_ BitVec 1))
         (J (_ BitVec 5))
         (K (_ BitVec 32))
         (L (_ BitVec 1))
         (M (_ BitVec 8))
         (N (_ BitVec 1))
         (O (_ BitVec 1))
         (P (_ BitVec 32))
         (Q (_ BitVec 4))
         (R (_ BitVec 1))
         (S (_ BitVec 1))
         (T (_ BitVec 1))
         (U (_ BitVec 8))
         (V (_ BitVec 8))
         (W (_ BitVec 1))
         (X (_ BitVec 1))
         (Y (_ BitVec 8))
         (Z (_ BitVec 1))
         (A1 (_ BitVec 1)))
  (! (let ((a!1 (or (not (= N #b0))
                    (not (= S #b0))
                    (not (= ((_ extract 5 5) U) #b1))))
           (a!2 (or (not ((_ bit2bool 8) G))
                    (not (= S #b0))
                    (not (= ((_ extract 0 0) Q) #b1))))
           (a!3 (or ((_ bit2bool 26) G)
                    (not (= S #b0))
                    (not (= ((_ extract 3 3) U) #b1)))))
     (let ((a!4 (and (or ((_ bit2bool 26) G)
                         (not (= S #b0))
                         (not ((_ bit2bool 1) U)))
                     (or (not ((_ bit2bool 8) G)) (not ((_ bit2bool 0) I)))
                     (or (= Z #b1)
                         (not (= T #b1))
                         (not (= R #b1))
                         (not (= S #b0)))
                     (or (not ((_ bit2bool 8) G)) (not (= F #b1)))
                     (or ((_ bit2bool 0) J) (not ((_ bit2bool 8) G)))
                     (or (not (= N #b1)) (not ((_ bit2bool 0) I)))
                     (or (not ((_ bit2bool 26) G)) (not (= F #b1)))
                     (or ((_ bit2bool 1) Q) ((_ bit2bool 8) G))
                     (or ((_ bit2bool 2) Q) ((_ bit2bool 17) G))
                     (or ((_ bit2bool 3) Q) ((_ bit2bool 26) G))
                     (or (not ((_ bit2bool 26) G))
                         ((_ bit2bool 0) N)
                         ((_ bit2bool 8) G))
                     (or ((_ bit2bool 0) J)
                         (not (= S #b0))
                         (not ((_ bit2bool 0) U)))
                     (or ((_ bit2bool 0) J)
                         (not (= S #b0))
                         (not ((_ bit2bool 6) U)))
                     a!1
                     (or (not (= O #b0))
                         (not (= R #b1))
                         (not (= S #b0))
                         (not ((_ bit2bool 1) U)))
                     a!2
                     (or ((_ bit2bool 0) J)
                         (not ((_ bit2bool 26) G))
                         (not (= R #b1))
                         (not ((_ bit2bool 0) O)))
                     (or ((_ bit2bool 8) G) (not (= R #b1)) (= O #b0) (= Z #b1))
                     (or ((_ bit2bool 3) Q) ((_ bit2bool 8) G))
                     (or (not ((_ bit2bool 8) G))
                         (not (= S #b0))
                         ((_ bit2bool 17) G))
                     (or (= N #b1) (not (= O #b0)) (not ((_ bit2bool 17) G)))
                     (or ((_ bit2bool 26) G)
                         (not ((_ bit2bool 17) G))
                         ((_ bit2bool 8) G))
                     (or ((_ bit2bool 1) J) (not ((_ bit2bool 17) G)))
                     (or ((_ bit2bool 2) Q) ((_ bit2bool 8) G))
                     a!3
                     (or ((_ bit2bool 3) Q) (= ((_ extract 17 17) G) #b1))
                     (or ((_ bit2bool 26) G)
                         (not (= S #b0))
                         (not ((_ bit2bool 7) U)))
                     (or ((_ bit2bool 26) G)
                         (not ((_ bit2bool 17) G))
                         (not (= S #b0)))
                     (or (not ((_ bit2bool 26) G))
                         (not (= N #b0))
                         (not (= S #b0))))))
       (= (INV!slice!1 A B C D E F G H I J K L M N O P Q R S T U V W X Y Z A1)
          a!4)))
     :weight 0))
